# Objective value = 15
y 15
x1 21
r1 0
y1 8
p12 1
q12 1
p13 1
q13 0
p14 1
q14 0
p15 0
q15 0
p16 1
q16 0
p17 1
q17 1
p18 1
q18 0
p19 1
q19 0
p110 1
q110 0
p111 1
q111 0
p112 1
q112 0
p113 1
q113 0
p114 1
q114 0
p115 1
q115 0
p116 1
q116 0
p117 1
q117 1
p118 1
q118 0
p119 1
q119 0
p120 1
q120 1
p121 1
q121 0
p122 1
q122 1
p123 1
q123 0
p124 1
q124 0
p125 1
q125 0
p126 1
q126 1
p127 1
q127 0
p128 1
q128 0
p129 1
q129 0
p130 1
q130 0
p131 1
q131 1
p132 1
q132 0
p133 1
q133 0
p134 1
q134 0
p135 1
q135 1
p136 1
q136 0
p137 1
q137 0
p138 1
q138 0
p139 0
q139 0
p140 1
q140 1
p141 1
q141 0
p142 1
q142 0
x2 22
r2 0
y2 1
p23 0
q23 1
p24 1
q24 0
p25 0
q25 0
p26 1
q26 0
p27 1
q27 0
p28 1
q28 0
p29 1
q29 0
p210 1
q210 0
p211 1
q211 0
p212 1
q212 0
p213 1
q213 0
p214 1
q214 0
p215 1
q215 0
p216 0
q216 1
p217 0
q217 0
p218 1
q218 0
p219 1
q219 0
p220 1
q220 1
p221 1
q221 0
p222 1
q222 0
p223 1
q223 0
p224 1
q224 0
p225 1
q225 0
p226 1
q226 0
p227 1
q227 0
p228 1
q228 0
p229 1
q229 0
p230 0
q230 1
p231 1
q231 0
p232 1
q232 0
p233 1
q233 0
p234 1
q234 0
p235 1
q235 0
p236 1
q236 0
p237 1
q237 0
p238 1
q238 0
p239 0
q239 1
p240 1
q240 0
p241 1
q241 0
p242 0
q242 1
x3 8
r3 0
y3 9
p34 1
q34 0
p35 0
q35 0
p36 1
q36 0
p37 1
q37 1
p38 1
q38 0
p39 1
q39 1
p310 0
q310 0
p311 0
q311 0
p312 1
q312 1
p313 0
q313 0
p314 1
q314 1
p315 0
q315 0
p316 0
q316 0
p317 0
q317 0
p318 1
q318 1
p319 1
q319 1
p320 1
q320 1
p321 1
q321 0
p322 1
q322 1
p323 1
q323 1
p324 0
q324 0
p325 1
q325 0
p326 0
q326 0
p327 0
q327 0
p328 1
q328 0
p329 1
q329 1
p330 1
q330 0
p331 1
q331 1
p332 0
q332 0
p333 0
q333 0
p334 1
q334 1
p335 0
q335 0
p336 0
q336 0
p337 1
q337 0
p338 0
q338 0
p339 0
q339 0
p340 0
q340 0
p341 1
q341 0
p342 0
q342 0
x4 5
r4 0
y4 6
p45 0
q45 0
p46 1
q46 0
p47 0
q47 0
p48 1
q48 0
p49 1
q49 1
p410 0
q410 0
p411 0
q411 0
p412 1
q412 1
p413 0
q413 0
p414 1
q414 1
p415 0
q415 0
p416 0
q416 0
p417 0
q417 0
p418 1
q418 0
p419 1
q419 1
p420 0
q420 0
p421 1
q421 0
p422 1
q422 1
p423 1
q423 1
p424 0
q424 0
p425 0
q425 0
p426 0
q426 0
p427 0
q427 0
p428 1
q428 0
p429 0
q429 0
p430 0
q430 0
p431 0
q431 0
p432 0
q432 0
p433 0
q433 0
p434 0
q434 0
p435 0
q435 0
p436 0
q436 0
p437 1
q437 0
p438 0
q438 0
p439 0
q439 0
p440 0
q440 0
p441 1
q441 0
p442 0
q442 0
x5 23
r5 0
y5 6
p56 1
q56 0
p57 1
q57 1
p58 1
q58 0
p59 1
q59 0
p510 1
q510 0
p511 1
q511 0
p512 1
q512 1
p513 1
q513 0
p514 1
q514 0
p515 1
q515 0
p516 1
q516 0
p517 1
q517 1
p518 1
q518 0
p519 1
q519 0
p520 1
q520 1
p521 1
q521 0
p522 1
q522 0
p523 1
q523 0
p524 1
q524 0
p525 1
q525 0
p526 1
q526 0
p527 1
q527 0
p528 1
q528 0
p529 1
q529 0
p530 1
q530 0
p531 1
q531 1
p532 1
q532 0
p533 1
q533 0
p534 1
q534 0
p535 1
q535 1
p536 1
q536 0
p537 1
q537 0
p538 1
q538 0
p539 1
q539 0
p540 1
q540 0
p541 1
q541 0
p542 1
q542 0
x6 0
r6 0
y6 2
p67 0
q67 0
p68 0
q68 0
p69 1
q69 1
p610 0
q610 0
p611 0
q611 0
p612 0
q612 0
p613 0
q613 0
p614 0
q614 0
p615 0
q615 0
p616 0
q616 0
p617 0
q617 0
p618 1
q618 1
p619 1
q619 1
p620 0
q620 0
p621 0
q621 0
p622 0
q622 0
p623 0
q623 0
p624 0
q624 0
p625 0
q625 0
p626 0
q626 0
p627 0
q627 0
p628 0
q628 1
p629 0
q629 0
p630 0
q630 0
p631 0
q631 0
p632 0
q632 0
p633 0
q633 0
p634 0
q634 0
p635 0
q635 0
p636 0
q636 0
p637 0
q637 0
p638 0
q638 0
p639 0
q639 0
p640 0
q640 0
p641 0
q641 0
p642 0
q642 0
x7 15
r7 0
y7 1
p78 1
q78 0
p79 1
q79 0
p710 0
q710 1
p711 0
q711 1
p712 1
q712 0
p713 0
q713 0
p714 1
q714 0
p715 0
q715 1
p716 0
q716 1
p717 0
q717 0
p718 1
q718 0
p719 1
q719 0
p720 1
q720 1
p721 1
q721 0
p722 1
q722 0
p723 1
q723 0
p724 1
q724 0
p725 0
q725 1
p726 0
q726 0
p727 0
q727 1
p728 0
q728 1
p729 0
q729 0
p730 1
q730 0
p731 1
q731 0
p732 0
q732 0
p733 0
q733 1
p734 0
q734 1
p735 0
q735 0
p736 0
q736 1
p737 0
q737 1
p738 0
q738 1
p739 0
q739 0
p740 0
q740 0
p741 1
q741 0
p742 0
q742 0
x8 4
r8 0
y8 2
p89 1
q89 1
p810 0
q810 0
p811 0
q811 0
p812 1
q812 0
p813 0
q813 0
p814 1
q814 1
p815 0
q815 0
p816 0
q816 0
p817 0
q817 0
p818 1
q818 1
p819 1
q819 1
p820 0
q820 0
p821 1
q821 0
p822 0
q822 0
p823 0
q823 0
p824 0
q824 0
p825 0
q825 0
p826 0
q826 0
p827 0
q827 0
p828 1
q828 0
p829 0
q829 0
p830 0
q830 0
p831 0
q831 0
p832 0
q832 0
p833 0
q833 0
p834 0
q834 0
p835 0
q835 0
p836 0
q836 0
p837 1
q837 0
p838 0
q838 0
p839 0
q839 0
p840 0
q840 0
p841 1
q841 0
p842 0
q842 0
x9 0
r9 1
y9 0
p910 0
q910 1
p911 0
q911 1
p912 0
q912 1
p913 0
q913 0
p914 0
q914 1
p915 0
q915 1
p916 0
q916 1
p917 0
q917 0
p918 0
q918 1
p919 0
q919 1
p920 0
q920 0
p921 0
q921 1
p922 0
q922 1
p923 0
q923 1
p924 0
q924 0
p925 0
q925 1
p926 0
q926 0
p927 0
q927 1
p928 0
q928 1
p929 0
q929 0
p930 0
q930 1
p931 0
q931 1
p932 0
q932 0
p933 0
q933 0
p934 0
q934 1
p935 0
q935 0
p936 0
q936 0
p937 0
q937 1
p938 0
q938 0
p939 0
q939 0
p940 0
q940 0
p941 0
q941 1
p942 0
q942 0
x10 14
r10 0
y10 4
p1011 1
q1011 0
p1012 1
q1012 1
p1013 0
q1013 0
p1014 1
q1014 1
p1015 1
q1015 0
p1016 1
q1016 0
p1017 1
q1017 1
p1018 1
q1018 0
p1019 1
q1019 1
p1020 1
q1020 1
p1021 1
q1021 0
p1022 1
q1022 0
p1023 1
q1023 1
p1024 1
q1024 0
p1025 1
q1025 0
p1026 0
q1026 0
p1027 0
q1027 0
p1028 1
q1028 0
p1029 0
q1029 0
p1030 1
q1030 0
p1031 1
q1031 0
p1032 0
q1032 0
p1033 0
q1033 0
p1034 1
q1034 0
p1035 1
q1035 1
p1036 0
q1036 0
p1037 1
q1037 0
p1038 1
q1038 0
p1039 0
q1039 0
p1040 0
q1040 0
p1041 1
q1041 0
p1042 0
q1042 0
x11 13
r11 0
y11 4
p1112 1
q1112 1
p1113 0
q1113 0
p1114 1
q1114 0
p1115 1
q1115 0
p1116 1
q1116 0
p1117 0
q1117 0
p1118 1
q1118 1
p1119 1
q1119 1
p1120 1
q1120 1
p1121 1
q1121 0
p1122 1
q1122 0
p1123 1
q1123 1
p1124 1
q1124 0
p1125 1
q1125 0
p1126 0
q1126 0
p1127 0
q1127 0
p1128 1
q1128 0
p1129 0
q1129 0
p1130 1
q1130 0
p1131 1
q1131 0
p1132 0
q1132 0
p1133 0
q1133 0
p1134 1
q1134 0
p1135 0
q1135 0
p1136 0
q1136 0
p1137 1
q1137 0
p1138 1
q1138 0
p1139 0
q1139 0
p1140 0
q1140 0
p1141 1
q1141 0
p1142 0
q1142 0
x12 3
r12 0
y12 2
p1213 0
q1213 0
p1214 0
q1214 0
p1215 0
q1215 0
p1216 0
q1216 0
p1217 0
q1217 0
p1218 1
q1218 1
p1219 1
q1219 0
p1220 0
q1220 0
p1221 1
q1221 0
p1222 0
q1222 0
p1223 0
q1223 0
p1224 0
q1224 0
p1225 0
q1225 0
p1226 0
q1226 0
p1227 0
q1227 1
p1228 0
q1228 1
p1229 0
q1229 0
p1230 0
q1230 1
p1231 0
q1231 0
p1232 0
q1232 0
p1233 0
q1233 0
p1234 0
q1234 0
p1235 0
q1235 0
p1236 0
q1236 1
p1237 0
q1237 1
p1238 0
q1238 0
p1239 0
q1239 0
p1240 0
q1240 0
p1241 1
q1241 0
p1242 0
q1242 0
x13 16
r13 0
y13 2
p1314 1
q1314 0
p1315 1
q1315 0
p1316 1
q1316 0
p1317 0
q1317 0
p1318 1
q1318 0
p1319 1
q1319 0
p1320 1
q1320 1
p1321 1
q1321 0
p1322 1
q1322 0
p1323 1
q1323 1
p1324 1
q1324 0
p1325 1
q1325 0
p1326 0
q1326 0
p1327 1
q1327 0
p1328 1
q1328 0
p1329 0
q1329 0
p1330 1
q1330 0
p1331 1
q1331 0
p1332 0
q1332 0
p1333 0
q1333 0
p1334 1
q1334 0
p1335 0
q1335 0
p1336 0
q1336 0
p1337 1
q1337 0
p1338 1
q1338 0
p1339 0
q1339 0
p1340 0
q1340 0
p1341 1
q1341 0
p1342 0
q1342 0
x14 4
r14 1
y14 1
p1415 0
q1415 0
p1416 0
q1416 0
p1417 0
q1417 0
p1418 1
q1418 0
p1419 1
q1419 0
p1420 0
q1420 0
p1421 1
q1421 0
p1422 0
q1422 1
p1423 0
q1423 0
p1424 0
q1424 0
p1425 0
q1425 1
p1426 0
q1426 0
p1427 0
q1427 0
p1428 0
q1428 1
p1429 0
q1429 0
p1430 0
q1430 1
p1431 0
q1431 1
p1432 0
q1432 0
p1433 0
q1433 0
p1434 0
q1434 0
p1435 0
q1435 0
p1436 0
q1436 0
p1437 1
q1437 0
p1438 0
q1438 0
p1439 0
q1439 0
p1440 0
q1440 0
p1441 1
q1441 0
p1442 0
q1442 0
x15 11
r15 0
y15 3
p1516 1
q1516 0
p1517 0
q1517 0
p1518 1
q1518 0
p1519 1
q1519 0
p1520 1
q1520 1
p1521 1
q1521 0
p1522 1
q1522 0
p1523 1
q1523 1
p1524 1
q1524 0
p1525 1
q1525 0
p1526 0
q1526 0
p1527 0
q1527 0
p1528 1
q1528 0
p1529 0
q1529 0
p1530 1
q1530 0
p1531 1
q1531 0
p1532 0
q1532 0
p1533 0
q1533 0
p1534 1
q1534 0
p1535 0
q1535 0
p1536 0
q1536 0
p1537 1
q1537 0
p1538 0
q1538 0
p1539 0
q1539 0
p1540 0
q1540 0
p1541 1
q1541 0
p1542 0
q1542 0
x16 9
r16 0
y16 10
p1617 1
q1617 1
p1618 1
q1618 0
p1619 1
q1619 0
p1620 0
q1620 0
p1621 1
q1621 0
p1622 1
q1622 1
p1623 1
q1623 1
p1624 0
q1624 0
p1625 1
q1625 0
p1626 1
q1626 1
p1627 0
q1627 0
p1628 1
q1628 0
p1629 1
q1629 1
p1630 1
q1630 0
p1631 1
q1631 1
p1632 0
q1632 0
p1633 1
q1633 1
p1634 1
q1634 1
p1635 1
q1635 1
p1636 0
q1636 0
p1637 1
q1637 0
p1638 0
q1638 0
p1639 0
q1639 0
p1640 0
q1640 0
p1641 1
q1641 0
p1642 0
q1642 0
x17 23
r17 0
y17 1
p1718 1
q1718 0
p1719 1
q1719 0
p1720 1
q1720 1
p1721 1
q1721 0
p1722 1
q1722 0
p1723 1
q1723 0
p1724 1
q1724 0
p1725 1
q1725 0
p1726 0
q1726 1
p1727 0
q1727 1
p1728 1
q1728 0
p1729 1
q1729 0
p1730 1
q1730 0
p1731 1
q1731 0
p1732 0
q1732 1
p1733 0
q1733 1
p1734 1
q1734 0
p1735 1
q1735 0
p1736 0
q1736 1
p1737 1
q1737 0
p1738 1
q1738 0
p1739 0
q1739 1
p1740 1
q1740 0
p1741 1
q1741 0
p1742 0
q1742 1
x18 3
r18 0
y18 1
p1819 1
q1819 0
p1820 0
q1820 0
p1821 1
q1821 0
p1822 0
q1822 0
p1823 0
q1823 0
p1824 0
q1824 0
p1825 0
q1825 0
p1826 0
q1826 0
p1827 0
q1827 0
p1828 0
q1828 1
p1829 0
q1829 0
p1830 0
q1830 0
p1831 0
q1831 0
p1832 0
q1832 0
p1833 0
q1833 0
p1834 0
q1834 0
p1835 0
q1835 0
p1836 0
q1836 0
p1837 0
q1837 1
p1838 0
q1838 0
p1839 0
q1839 0
p1840 0
q1840 0
p1841 1
q1841 0
p1842 0
q1842 0
x19 0
r19 0
y19 1
p1920 0
q1920 0
p1921 0
q1921 0
p1922 0
q1922 0
p1923 0
q1923 0
p1924 0
q1924 0
p1925 0
q1925 0
p1926 0
q1926 0
p1927 0
q1927 0
p1928 0
q1928 1
p1929 0
q1929 0
p1930 0
q1930 1
p1931 0
q1931 0
p1932 0
q1932 0
p1933 0
q1933 0
p1934 0
q1934 0
p1935 0
q1935 0
p1936 0
q1936 0
p1937 0
q1937 1
p1938 0
q1938 0
p1939 0
q1939 0
p1940 0
q1940 0
p1941 0
q1941 0
p1942 0
q1942 0
x20 11
r20 1
y20 0
p2021 1
q2021 0
p2022 1
q2022 0
p2023 0
q2023 1
p2024 1
q2024 0
p2025 1
q2025 0
p2026 0
q2026 1
p2027 0
q2027 1
p2028 1
q2028 0
p2029 0
q2029 1
p2030 1
q2030 0
p2031 1
q2031 0
p2032 0
q2032 1
p2033 0
q2033 1
p2034 1
q2034 0
p2035 0
q2035 1
p2036 0
q2036 1
p2037 1
q2037 0
p2038 0
q2038 1
p2039 0
q2039 1
p2040 0
q2040 1
p2041 1
q2041 0
p2042 0
q2042 1
x21 2
r21 0
y21 1
p2122 0
q2122 0
p2123 0
q2123 0
p2124 0
q2124 0
p2125 0
q2125 0
p2126 0
q2126 0
p2127 0
q2127 0
p2128 1
q2128 0
p2129 0
q2129 0
p2130 0
q2130 0
p2131 0
q2131 0
p2132 0
q2132 0
p2133 0
q2133 0
p2134 0
q2134 0
p2135 0
q2135 0
p2136 0
q2136 0
p2137 0
q2137 0
p2138 0
q2138 0
p2139 0
q2139 0
p2140 0
q2140 0
p2141 1
q2141 0
p2142 0
q2142 0
x22 5
r22 0
y22 2
p2223 0
q2223 0
p2224 0
q2224 0
p2225 0
q2225 0
p2226 0
q2226 0
p2227 0
q2227 0
p2228 0
q2228 1
p2229 0
q2229 0
p2230 0
q2230 1
p2231 0
q2231 0
p2232 0
q2232 0
p2233 0
q2233 0
p2234 0
q2234 0
p2235 0
q2235 0
p2236 0
q2236 0
p2237 1
q2237 0
p2238 0
q2238 0
p2239 0
q2239 0
p2240 0
q2240 0
p2241 1
q2241 0
p2242 0
q2242 0
x23 13
r23 1
y23 1
p2324 1
q2324 0
p2325 0
q2325 1
p2326 0
q2326 0
p2327 0
q2327 1
p2328 0
q2328 1
p2329 0
q2329 0
p2330 0
q2330 1
p2331 0
q2331 1
p2332 0
q2332 0
p2333 0
q2333 0
p2334 0
q2334 1
p2335 0
q2335 0
p2336 0
q2336 0
p2337 0
q2337 1
p2338 0
q2338 1
p2339 0
q2339 0
p2340 0
q2340 0
p2341 1
q2341 0
p2342 0
q2342 0
x24 10
r24 0
y24 0
p2425 1
q2425 0
p2426 0
q2426 0
p2427 0
q2427 0
p2428 1
q2428 0
p2429 0
q2429 0
p2430 1
q2430 0
p2431 1
q2431 0
p2432 0
q2432 0
p2433 0
q2433 0
p2434 1
q2434 0
p2435 0
q2435 0
p2436 0
q2436 0
p2437 1
q2437 0
p2438 0
q2438 0
p2439 0
q2439 0
p2440 0
q2440 0
p2441 1
q2441 0
p2442 0
q2442 0
x25 7
r25 0
y25 2
p2526 0
q2526 0
p2527 0
q2527 0
p2528 1
q2528 0
p2529 0
q2529 0
p2530 1
q2530 0
p2531 1
q2531 0
p2532 0
q2532 0
p2533 0
q2533 0
p2534 0
q2534 0
p2535 0
q2535 0
p2536 0
q2536 0
p2537 1
q2537 0
p2538 0
q2538 0
p2539 0
q2539 0
p2540 0
q2540 0
p2541 1
q2541 0
p2542 0
q2542 0
x26 17
r26 0
y26 4
p2627 1
q2627 0
p2628 1
q2628 0
p2629 0
q2629 0
p2630 1
q2630 0
p2631 1
q2631 0
p2632 0
q2632 0
p2633 0
q2633 0
p2634 1
q2634 0
p2635 1
q2635 1
p2636 0
q2636 1
p2637 1
q2637 0
p2638 1
q2638 0
p2639 0
q2639 1
p2640 0
q2640 0
p2641 1
q2641 0
p2642 0
q2642 1
x27 15
r27 0
y27 6
p2728 1
q2728 0
p2729 0
q2729 0
p2730 1
q2730 0
p2731 1
q2731 1
p2732 0
q2732 0
p2733 0
q2733 0
p2734 1
q2734 0
p2735 1
q2735 1
p2736 0
q2736 0
p2737 1
q2737 0
p2738 1
q2738 0
p2739 0
q2739 0
p2740 0
q2740 0
p2741 1
q2741 0
p2742 0
q2742 0
x28 0
r28 0
y28 11
p2829 0
q2829 0
p2830 0
q2830 0
p2831 0
q2831 0
p2832 0
q2832 0
p2833 0
q2833 0
p2834 1
q2834 1
p2835 0
q2835 0
p2836 0
q2836 0
p2837 0
q2837 0
p2838 0
q2838 0
p2839 0
q2839 0
p2840 0
q2840 0
p2841 0
q2841 0
p2842 0
q2842 0
x29 18
r29 0
y29 1
p2930 0
q2930 1
p2931 1
q2931 0
p2932 0
q2932 0
p2933 0
q2933 0
p2934 1
q2934 0
p2935 1
q2935 0
p2936 0
q2936 1
p2937 1
q2937 0
p2938 1
q2938 0
p2939 0
q2939 0
p2940 0
q2940 0
p2941 1
q2941 0
p2942 0
q2942 1
x30 6
r30 0
y30 8
p3031 1
q3031 1
p3032 0
q3032 0
p3033 0
q3033 0
p3034 0
q3034 0
p3035 1
q3035 1
p3036 0
q3036 0
p3037 1
q3037 0
p3038 0
q3038 0
p3039 0
q3039 0
p3040 0
q3040 0
p3041 1
q3041 0
p3042 0
q3042 0
x31 6
r31 0
y31 2
p3132 0
q3132 0
p3133 0
q3133 0
p3134 0
q3134 0
p3135 0
q3135 0
p3136 0
q3136 1
p3137 1
q3137 0
p3138 0
q3138 0
p3139 0
q3139 0
p3140 0
q3140 0
p3141 1
q3141 0
p3142 0
q3142 0
x32 19
r32 0
y32 4
p3233 0
q3233 0
p3234 1
q3234 0
p3235 1
q3235 0
p3236 0
q3236 0
p3237 1
q3237 0
p3238 1
q3238 0
p3239 0
q3239 0
p3240 0
q3240 0
p3241 1
q3241 0
p3242 1
q3242 0
x33 20
r33 0
y33 5
p3334 1
q3334 0
p3335 1
q3335 1
p3336 0
q3336 1
p3337 1
q3337 0
p3338 1
q3338 0
p3339 0
q3339 0
p3340 0
q3340 0
p3341 1
q3341 0
p3342 1
q3342 0
x34 9
r34 0
y34 2
p3435 0
q3435 0
p3436 0
q3436 0
p3437 1
q3437 0
p3438 0
q3438 0
p3439 0
q3439 0
p3440 0
q3440 0
p3441 1
q3441 0
p3442 0
q3442 0
x35 17
r35 0
y35 1
p3536 0
q3536 1
p3537 1
q3537 0
p3538 1
q3538 0
p3539 0
q3539 0
p3540 0
q3540 0
p3541 1
q3541 0
p3542 0
q3542 1
x36 20
r36 0
y36 11
p3637 1
q3637 0
p3638 1
q3638 0
p3639 0
q3639 0
p3640 1
q3640 1
p3641 1
q3641 0
p3642 1
q3642 0
x37 3
r37 0
y37 4
p3738 0
q3738 0
p3739 0
q3739 0
p3740 0
q3740 0
p3741 1
q3741 0
p3742 0
q3742 0
x38 12
r38 0
y38 2
p3839 0
q3839 0
p3840 0
q3840 0
p3841 1
q3841 0
p3842 0
q3842 0
x39 22
r39 0
y39 8
p3940 1
q3940 0
p3941 1
q3941 0
p3942 1
q3942 0
x40 21
r40 0
y40 1
p4041 1
q4041 0
p4042 1
q4042 0
x41 1
r41 0
y41 1
p4142 0
q4142 0
x42 17
r42 0
y42 8
